CPXPARAM_TimeLimit                               3600
CPXPARAM_Read_DataCheck                          1
Parallel mode: deterministic, using up to 8 threads for concurrent optimization.
Tried aggregator 1 time.
LP Presolve eliminated 273 rows and 0 columns.
Reduced LP has 171607 rows, 54451 columns, and 616514 nonzeros.
Presolve time = 0.06 sec. (99.10 ticks)

Iteration log . . .
Iteration:     1   Dual objective     =           990.000000
Perturbation started.
Iteration:   346   Dual objective     =           990.000000
Iteration:   605   Dual objective     =           990.001365
Iteration:   703   Dual objective     =           990.002217
Initializing dual steep norms . . .
Iteration:   704   Dual objective     =           990.002227
Iteration:  1415   Dual objective     =           990.005377
Iteration:  2411   Dual objective     =           990.006220
Iteration:  3325   Dual objective     =           990.006783
Iteration:  4008   Dual objective     =           990.007227
Iteration:  4704   Dual objective     =           990.007961
Iteration:  5457   Dual objective     =           990.008590
Iteration:  6518   Dual objective     =           990.009357
Iteration:  7404   Dual objective     =           990.010341
Iteration:  8253   Dual objective     =           990.010912
Iteration:  8843   Dual objective     =           990.011285
Iteration:  9818   Dual objective     =           990.011955
Iteration: 10532   Dual objective     =           990.012299
Iteration: 11045   Dual objective     =           990.013049
Iteration: 11950   Dual objective     =           990.014283
Iteration: 12642   Dual objective     =           990.014622
Iteration: 13132   Dual objective     =           990.015024
Iteration: 13645   Dual objective     =           990.015364
Iteration: 14324   Dual objective     =           990.015995
Iteration: 14896   Dual objective     =           990.016423
Iteration: 15370   Dual objective     =           990.016725
Iteration: 15964   Dual objective     =           990.017431
Iteration: 16778   Dual objective     =           990.018591
Iteration: 17444   Dual objective     =           990.019209
Iteration: 18096   Dual objective     =           990.020094
Iteration: 18805   Dual objective     =           990.021059
Elapsed time = 25.94 sec. (10000.14 ticks, 19214 iterations)
Iteration: 19330   Dual objective     =           990.021512
Iteration: 20133   Dual objective     =           990.022548
Iteration: 21120   Dual objective     =           990.025335
Iteration: 21862   Dual objective     =           990.025551
Iteration: 22269   Dual objective     =           990.025838
Iteration: 22756   Dual objective     =           990.026043
Iteration: 23403   Dual objective     =           990.026396
Iteration: 23894   Dual objective     =           990.026635
Iteration: 24632   Dual objective     =           990.026988
Iteration: 25237   Dual objective     =           990.027159
Iteration: 25788   Dual objective     =           990.027730
Iteration: 26459   Dual objective     =           990.028079
Iteration: 27122   Dual objective     =           990.028581
Iteration: 27623   Dual objective     =           990.028876
Iteration: 28280   Dual objective     =           990.029061
Iteration: 28758   Dual objective     =           990.029331
Iteration: 29373   Dual objective     =           990.029463
Iteration: 29809   Dual objective     =           990.029623
Iteration: 30316   Dual objective     =           990.029933
Iteration: 30770   Dual objective     =           990.030066
Iteration: 31294   Dual objective     =           990.030184
Iteration: 31796   Dual objective     =           990.030322
Iteration: 32290   Dual objective     =           990.030512
Iteration: 32809   Dual objective     =           990.030608
Iteration: 33328   Dual objective     =           990.030894
Iteration: 33885   Dual objective     =           990.031060
Iteration: 34384   Dual objective     =           990.031529
Iteration: 34856   Dual objective     =           990.031690
Iteration: 35445   Dual objective     =           990.031838
Iteration: 35966   Dual objective     =           990.031967
Iteration: 36469   Dual objective     =           990.033268
Iteration: 37181   Dual objective     =           990.033595
Iteration: 37816   Dual objective     =           990.033857
Iteration: 38493   Dual objective     =           990.034091
Iteration: 39164   Dual objective     =           990.034282
Iteration: 39679   Dual objective     =           990.034383
Iteration: 40233   Dual objective     =           990.034451
Iteration: 40726   Dual objective     =           990.033867
Iteration: 41269   Dual objective     =           990.034596
Iteration: 41834   Dual objective     =           990.034691
Iteration: 42498   Dual objective     =           990.034926
Iteration: 43145   Dual objective     =           990.035069
Elapsed time = 70.74 sec. (20000.26 ticks, 43746 iterations)
Iteration: 43777   Dual objective     =           990.035211
Iteration: 44277   Dual objective     =           990.035293
Iteration: 44794   Dual objective     =           990.035355
Iteration: 45318   Dual objective     =           990.035426
Iteration: 45816   Dual objective     =           990.035511
Iteration: 46400   Dual objective     =           990.035575
Iteration: 46996   Dual objective     =           990.035633
Iteration: 47504   Dual objective     =           990.035678
Iteration: 48076   Dual objective     =           990.035736
Iteration: 48588   Dual objective     =           990.035782
Iteration: 49127   Dual objective     =           990.036080
Iteration: 49579   Dual objective     =           990.036138
Iteration: 50058   Dual objective     =           990.036282
Iteration: 50543   Dual objective     =           990.036319
Iteration: 51060   Dual objective     =           990.036359
Iteration: 51556   Dual objective     =           990.036395
Iteration: 52052   Dual objective     =           990.036449
Iteration: 52603   Dual objective     =           990.036493
Iteration: 53537   Dual objective     =           990.036950
Iteration: 54174   Dual objective     =           990.037067
Iteration: 54650   Dual objective     =           990.037120
Iteration: 55320   Dual objective     =           990.037320
Iteration: 55938   Dual objective     =           990.037370
Iteration: 56499   Dual objective     =           990.037409
Iteration: 56988   Dual objective     =           990.037440
Iteration: 57515   Dual objective     =           990.037464
Iteration: 58079   Dual objective     =           990.037480
Iteration: 59115   Dual objective     =           990.037995
Iteration: 59828   Dual objective     =           990.038068
Iteration: 60476   Dual objective     =           990.039719
Iteration: 61046   Dual objective     =           990.039742
Iteration: 61560   Dual objective     =           990.039751
Iteration: 62199   Dual objective     =           990.039838
Iteration: 63064   Dual objective     =           990.039985
Iteration: 63673   Dual objective     =           990.040082
Iteration: 64230   Dual objective     =           990.040124
Iteration: 64752   Dual objective     =           990.040142
Iteration: 65224   Dual objective     =           990.040151
Iteration: 65938   Dual objective     =           990.040560
Iteration: 66691   Dual objective     =           990.040654
Iteration: 67221   Dual objective     =           990.040691
Iteration: 67678   Dual objective     =           990.040717
Iteration: 68151   Dual objective     =           990.040737
Iteration: 68575   Dual objective     =           990.040752
Iteration: 69042   Dual objective     =           990.040775
Iteration: 69497   Dual objective     =           990.040784
Iteration: 70312   Dual objective     =           990.040927
Iteration: 71047   Dual objective     =           990.041059
Iteration: 71705   Dual objective     =           990.041104
Iteration: 72212   Dual objective     =           990.041138
Iteration: 72677   Dual objective     =           990.041158
Iteration: 73093   Dual objective     =           990.041171
Iteration: 73585   Dual objective     =           990.041191
Iteration: 74090   Dual objective     =           990.041247
Iteration: 75077   Dual objective     =           990.041629
Iteration: 75718   Dual objective     =           990.041676
Iteration: 76347   Dual objective     =           990.041723
Iteration: 76937   Dual objective     =           990.041761
Iteration: 77404   Dual objective     =           990.041801
Iteration: 77927   Dual objective     =           990.041884
Iteration: 78377   Dual objective     =           990.041905
Iteration: 78802   Dual objective     =           990.041912
Iteration: 79465   Dual objective     =           990.042055
Iteration: 80293   Dual objective     =           990.042287
Iteration: 81051   Dual objective     =           990.042930
Iteration: 81784   Dual objective     =           990.043033
Iteration: 82360   Dual objective     =           990.043118
Iteration: 83014   Dual objective     =           990.043230
Iteration: 83492   Dual objective     =           990.043264
Elapsed time = 103.13 sec. (30000.31 ticks, 83809 iterations)
Iteration: 84501   Dual objective     =           992.819466
Iteration: 85264   Dual objective     =           993.166535
Iteration: 85889   Dual objective     =           993.166559
Iteration: 86497   Dual objective     =           993.166570
Iteration: 87429   Dual objective     =           993.211334
Iteration: 88134   Dual objective     =           993.211391
Iteration: 88787   Dual objective     =           993.211421
Iteration: 89410   Dual objective     =           993.211429
Iteration: 90325   Dual objective     =           993.222263
Iteration: 91032   Dual objective     =           993.222304
Iteration: 91650   Dual objective     =           993.222323
Iteration: 92337   Dual objective     =           993.426035
Iteration: 93145   Dual objective     =           993.532924
Iteration: 93719   Dual objective     =           993.532947
Iteration: 94315   Dual objective     =           993.532960
Iteration: 95091   Dual objective     =           994.114603
Iteration: 95828   Dual objective     =           994.239713
Iteration: 96476   Dual objective     =           994.294195
Iteration: 97152   Dual objective     =           994.367444
Iteration: 97911   Dual objective     =           994.446029
Iteration: 98631   Dual objective     =           994.446067
Iteration: 99492   Dual objective     =           995.420674
Iteration: 100292   Dual objective     =          1004.167534
Iteration: 100935   Dual objective     =          1004.168069
Iteration: 101682   Dual objective     =          1004.168781
Iteration: 102240   Dual objective     =          1004.168891
Iteration: 102738   Dual objective     =          1004.169006
Iteration: 103221   Dual objective     =          1004.169121
Iteration: 103727   Dual objective     =          1004.169210
Iteration: 104187   Dual objective     =          1004.169237
Iteration: 104640   Dual objective     =          1004.169251
Iteration: 105104   Dual objective     =          1004.169298
Iteration: 105791   Dual objective     =          1004.169627
Iteration: 106339   Dual objective     =          1004.169693
Iteration: 106786   Dual objective     =          1004.169720
Iteration: 107185   Dual objective     =          1004.169752
Iteration: 107577   Dual objective     =          1004.169777
Iteration: 107950   Dual objective     =          1004.169789
Iteration: 108327   Dual objective     =          1004.169794
Iteration: 108822   Dual objective     =          1004.177449
Iteration: 109274   Dual objective     =          1004.177476
Iteration: 109653   Dual objective     =          1004.177493
Iteration: 110045   Dual objective     =          1004.177525
Iteration: 110464   Dual objective     =          1004.177557
Iteration: 110860   Dual objective     =          1004.177580
Iteration: 111231   Dual objective     =          1004.177600
Iteration: 111618   Dual objective     =          1004.177613
Iteration: 112012   Dual objective     =          1004.177641
Iteration: 112533   Dual objective     =          1004.177666
Iteration: 112973   Dual objective     =          1004.177697
Iteration: 113363   Dual objective     =          1004.177720
Iteration: 113779   Dual objective     =          1004.177735
Iteration: 114189   Dual objective     =          1004.177738
Iteration: 114629   Dual objective     =          1004.177758
Iteration: 114996   Dual objective     =          1004.177780
Iteration: 115394   Dual objective     =          1004.177824
Iteration: 115758   Dual objective     =          1004.177844
Iteration: 116147   Dual objective     =          1004.177876
Iteration: 116525   Dual objective     =          1004.177890
Elapsed time = 134.85 sec. (40000.59 ticks, 116822 iterations)
Iteration: 116926   Dual objective     =          1004.177910
Iteration: 117303   Dual objective     =          1004.177918
Iteration: 117700   Dual objective     =          1004.177926
Iteration: 118137   Dual objective     =          1004.177951
Iteration: 118541   Dual objective     =          1004.177958
Iteration: 118922   Dual objective     =          1004.177965
Iteration: 119302   Dual objective     =          1004.177971
Iteration: 119662   Dual objective     =          1004.177988
Iteration: 120003   Dual objective     =          1004.177993
Iteration: 120372   Dual objective     =          1004.178050
Iteration: 120758   Dual objective     =          1004.178050
Iteration: 121181   Dual objective     =          1004.178065
Iteration: 121555   Dual objective     =          1004.178072
Iteration: 121910   Dual objective     =          1004.178084
Iteration: 122283   Dual objective     =          1004.178095
Iteration: 122659   Dual objective     =          1004.178102
Iteration: 123022   Dual objective     =          1004.178126
Iteration: 123373   Dual objective     =          1004.178130
Iteration: 123713   Dual objective     =          1004.178131
Iteration: 124063   Dual objective     =          1004.178148
Iteration: 124422   Dual objective     =          1004.178181
Iteration: 124769   Dual objective     =          1004.178193
Iteration: 125130   Dual objective     =          1004.178195
Iteration: 125481   Dual objective     =          1004.178209
Iteration: 125824   Dual objective     =          1004.178213
Iteration: 126175   Dual objective     =          1004.178214
Iteration: 126560   Dual objective     =          1004.178221
Iteration: 126912   Dual objective     =          1004.178230
Iteration: 127263   Dual objective     =          1004.178232
Iteration: 127609   Dual objective     =          1004.178236
Iteration: 127953   Dual objective     =          1004.178237
Iteration: 128308   Dual objective     =          1004.178238
Iteration: 128671   Dual objective     =          1004.178246
Iteration: 129055   Dual objective     =          1004.178247
Iteration: 129431   Dual objective     =          1004.178248
Iteration: 129803   Dual objective     =          1004.178249
Iteration: 130188   Dual objective     =          1004.178249
Removing perturbation.
Markowitz threshold set to 0.1
Iteration: 130224   Dual objective     =          1004.135742

Dual simplex solved model.

